language ESSENCE' 1.0

letting nnodes be 60
letting nrings be 45
letting capacity be 45
letting demand_ExplicitR3_Explicit be
        [[1, 2; int(1..2)], [1, 3; int(1..2)], [1, 4; int(1..2)], [1, 5; int(1..2)], [1, 6; int(1..2)],
         [1, 8; int(1..2)], [1, 11; int(1..2)], [1, 12; int(1..2)], [1, 19; int(1..2)], [1, 22; int(1..2)],
         [1, 25; int(1..2)], [1, 29; int(1..2)], [1, 32; int(1..2)], [1, 33; int(1..2)], [1, 35; int(1..2)],
         [1, 37; int(1..2)], [1, 39; int(1..2)], [1, 40; int(1..2)], [1, 43; int(1..2)], [1, 44; int(1..2)],
         [1, 47; int(1..2)], [1, 53; int(1..2)], [1, 54; int(1..2)], [1, 56; int(1..2)], [1, 58; int(1..2)],
         [1, 59; int(1..2)], [2, 10; int(1..2)], [2, 11; int(1..2)], [2, 15; int(1..2)], [2, 20; int(1..2)],
         [2, 21; int(1..2)], [2, 22; int(1..2)], [2, 24; int(1..2)], [2, 26; int(1..2)], [2, 28; int(1..2)],
         [2, 29; int(1..2)], [2, 30; int(1..2)], [2, 31; int(1..2)], [2, 33; int(1..2)], [2, 34; int(1..2)],
         [2, 36; int(1..2)], [2, 37; int(1..2)], [2, 38; int(1..2)], [2, 41; int(1..2)], [2, 44; int(1..2)],
         [2, 45; int(1..2)], [2, 47; int(1..2)], [2, 48; int(1..2)], [2, 50; int(1..2)], [2, 51; int(1..2)],
         [2, 52; int(1..2)], [2, 53; int(1..2)], [2, 55; int(1..2)], [2, 56; int(1..2)], [3, 4; int(1..2)],
         [3, 5; int(1..2)], [3, 8; int(1..2)], [3, 9; int(1..2)], [3, 11; int(1..2)], [3, 14; int(1..2)],
         [3, 15; int(1..2)], [3, 18; int(1..2)], [3, 21; int(1..2)], [3, 24; int(1..2)], [3, 26; int(1..2)],
         [3, 27; int(1..2)], [3, 28; int(1..2)], [3, 29; int(1..2)], [3, 32; int(1..2)], [3, 33; int(1..2)],
         [3, 36; int(1..2)], [3, 37; int(1..2)], [3, 38; int(1..2)], [3, 42; int(1..2)], [3, 45; int(1..2)],
         [3, 49; int(1..2)], [3, 50; int(1..2)], [3, 51; int(1..2)], [3, 52; int(1..2)], [3, 56; int(1..2)],
         [4, 5; int(1..2)], [4, 9; int(1..2)], [4, 11; int(1..2)], [4, 13; int(1..2)], [4, 16; int(1..2)],
         [4, 20; int(1..2)], [4, 22; int(1..2)], [4, 24; int(1..2)], [4, 26; int(1..2)], [4, 31; int(1..2)],
         [4, 32; int(1..2)], [4, 34; int(1..2)], [4, 35; int(1..2)], [4, 37; int(1..2)], [4, 44; int(1..2)],
         [4, 45; int(1..2)], [4, 46; int(1..2)], [4, 47; int(1..2)], [4, 49; int(1..2)], [4, 50; int(1..2)],
         [4, 51; int(1..2)], [4, 56; int(1..2)], [4, 57; int(1..2)], [4, 58; int(1..2)], [4, 59; int(1..2)],
         [5, 9; int(1..2)], [5, 11; int(1..2)], [5, 12; int(1..2)], [5, 13; int(1..2)], [5, 15; int(1..2)],
         [5, 16; int(1..2)], [5, 19; int(1..2)], [5, 20; int(1..2)], [5, 23; int(1..2)], [5, 24; int(1..2)],
         [5, 25; int(1..2)], [5, 27; int(1..2)], [5, 29; int(1..2)], [5, 30; int(1..2)], [5, 32; int(1..2)],
         [5, 34; int(1..2)], [5, 37; int(1..2)], [5, 39; int(1..2)], [5, 41; int(1..2)], [5, 42; int(1..2)],
         [5, 43; int(1..2)], [5, 45; int(1..2)], [5, 46; int(1..2)], [5, 47; int(1..2)], [5, 49; int(1..2)],
         [5, 50; int(1..2)], [5, 51; int(1..2)], [5, 52; int(1..2)], [5, 53; int(1..2)], [5, 54; int(1..2)],
         [5, 55; int(1..2)], [5, 58; int(1..2)], [5, 59; int(1..2)], [5, 60; int(1..2)], [6, 10; int(1..2)],
         [6, 11; int(1..2)], [6, 14; int(1..2)], [6, 15; int(1..2)], [6, 17; int(1..2)], [6, 20; int(1..2)],
         [6, 22; int(1..2)], [6, 23; int(1..2)], [6, 24; int(1..2)], [6, 26; int(1..2)], [6, 28; int(1..2)],
         [6, 30; int(1..2)], [6, 31; int(1..2)], [6, 34; int(1..2)], [6, 36; int(1..2)], [6, 38; int(1..2)],
         [6, 41; int(1..2)], [6, 42; int(1..2)], [6, 43; int(1..2)], [6, 46; int(1..2)], [6, 49; int(1..2)],
         [6, 51; int(1..2)], [6, 52; int(1..2)], [6, 55; int(1..2)], [6, 59; int(1..2)], [6, 60; int(1..2)],
         [7, 8; int(1..2)], [7, 9; int(1..2)], [7, 10; int(1..2)], [7, 11; int(1..2)], [7, 14; int(1..2)],
         [7, 15; int(1..2)], [7, 17; int(1..2)], [7, 19; int(1..2)], [7, 22; int(1..2)], [7, 24; int(1..2)],
         [7, 27; int(1..2)], [7, 28; int(1..2)], [7, 32; int(1..2)], [7, 35; int(1..2)], [7, 39; int(1..2)],
         [7, 40; int(1..2)], [7, 41; int(1..2)], [7, 42; int(1..2)], [7, 49; int(1..2)], [7, 50; int(1..2)],
         [7, 52; int(1..2)], [7, 54; int(1..2)], [7, 60; int(1..2)], [8, 9; int(1..2)], [8, 10; int(1..2)],
         [8, 11; int(1..2)], [8, 13; int(1..2)], [8, 14; int(1..2)], [8, 16; int(1..2)], [8, 24; int(1..2)],
         [8, 25; int(1..2)], [8, 26; int(1..2)], [8, 29; int(1..2)], [8, 30; int(1..2)], [8, 31; int(1..2)],
         [8, 33; int(1..2)], [8, 36; int(1..2)], [8, 40; int(1..2)], [8, 41; int(1..2)], [8, 44; int(1..2)],
         [8, 46; int(1..2)], [8, 49; int(1..2)], [8, 50; int(1..2)], [8, 54; int(1..2)], [8, 58; int(1..2)],
         [8, 60; int(1..2)], [9, 10; int(1..2)], [9, 13; int(1..2)], [9, 17; int(1..2)], [9, 21; int(1..2)],
         [9, 23; int(1..2)], [9, 24; int(1..2)], [9, 27; int(1..2)], [9, 29; int(1..2)], [9, 31; int(1..2)],
         [9, 32; int(1..2)], [9, 36; int(1..2)], [9, 37; int(1..2)], [9, 38; int(1..2)], [9, 40; int(1..2)],
         [9, 46; int(1..2)], [9, 50; int(1..2)], [9, 52; int(1..2)], [9, 53; int(1..2)], [9, 55; int(1..2)],
         [9, 56; int(1..2)], [9, 58; int(1..2)], [10, 12; int(1..2)], [10, 14; int(1..2)], [10, 15; int(1..2)],
         [10, 16; int(1..2)], [10, 17; int(1..2)], [10, 18; int(1..2)], [10, 22; int(1..2)], [10, 23; int(1..2)],
         [10, 26; int(1..2)], [10, 27; int(1..2)], [10, 30; int(1..2)], [10, 32; int(1..2)], [10, 37; int(1..2)],
         [10, 40; int(1..2)], [10, 41; int(1..2)], [10, 43; int(1..2)], [10, 44; int(1..2)], [10, 45; int(1..2)],
         [10, 47; int(1..2)], [10, 49; int(1..2)], [10, 50; int(1..2)], [10, 51; int(1..2)], [10, 55; int(1..2)],
         [10, 59; int(1..2)], [10, 60; int(1..2)], [11, 13; int(1..2)], [11, 15; int(1..2)], [11, 16; int(1..2)],
         [11, 21; int(1..2)], [11, 22; int(1..2)], [11, 23; int(1..2)], [11, 24; int(1..2)], [11, 25; int(1..2)],
         [11, 27; int(1..2)], [11, 30; int(1..2)], [11, 32; int(1..2)], [11, 34; int(1..2)], [11, 41; int(1..2)],
         [11, 42; int(1..2)], [11, 44; int(1..2)], [11, 45; int(1..2)], [11, 46; int(1..2)], [11, 49; int(1..2)],
         [11, 50; int(1..2)], [11, 55; int(1..2)], [11, 56; int(1..2)], [11, 59; int(1..2)], [12, 13; int(1..2)],
         [12, 15; int(1..2)], [12, 16; int(1..2)], [12, 17; int(1..2)], [12, 18; int(1..2)], [12, 19; int(1..2)],
         [12, 20; int(1..2)], [12, 24; int(1..2)], [12, 25; int(1..2)], [12, 28; int(1..2)], [12, 30; int(1..2)],
         [12, 32; int(1..2)], [12, 33; int(1..2)], [12, 34; int(1..2)], [12, 36; int(1..2)], [12, 37; int(1..2)],
         [12, 39; int(1..2)], [12, 40; int(1..2)], [12, 41; int(1..2)], [12, 42; int(1..2)], [12, 43; int(1..2)],
         [12, 46; int(1..2)], [12, 48; int(1..2)], [12, 49; int(1..2)], [12, 50; int(1..2)], [12, 51; int(1..2)],
         [12, 52; int(1..2)], [12, 55; int(1..2)], [12, 58; int(1..2)], [12, 59; int(1..2)], [12, 60; int(1..2)],
         [13, 18; int(1..2)], [13, 25; int(1..2)], [13, 29; int(1..2)], [13, 31; int(1..2)], [13, 34; int(1..2)],
         [13, 35; int(1..2)], [13, 38; int(1..2)], [13, 41; int(1..2)], [13, 43; int(1..2)], [13, 44; int(1..2)],
         [13, 45; int(1..2)], [13, 52; int(1..2)], [13, 53; int(1..2)], [13, 54; int(1..2)], [13, 56; int(1..2)],
         [13, 57; int(1..2)], [13, 60; int(1..2)], [14, 17; int(1..2)], [14, 18; int(1..2)], [14, 20; int(1..2)],
         [14, 21; int(1..2)], [14, 22; int(1..2)], [14, 23; int(1..2)], [14, 25; int(1..2)], [14, 27; int(1..2)],
         [14, 30; int(1..2)], [14, 32; int(1..2)], [14, 34; int(1..2)], [14, 35; int(1..2)], [14, 36; int(1..2)],
         [14, 41; int(1..2)], [14, 42; int(1..2)], [14, 43; int(1..2)], [14, 44; int(1..2)], [14, 45; int(1..2)],
         [14, 46; int(1..2)], [14, 47; int(1..2)], [14, 49; int(1..2)], [14, 51; int(1..2)], [14, 52; int(1..2)],
         [14, 53; int(1..2)], [14, 56; int(1..2)], [14, 57; int(1..2)], [14, 59; int(1..2)], [15, 16; int(1..2)],
         [15, 17; int(1..2)], [15, 18; int(1..2)], [15, 19; int(1..2)], [15, 22; int(1..2)], [15, 23; int(1..2)],
         [15, 24; int(1..2)], [15, 25; int(1..2)], [15, 28; int(1..2)], [15, 29; int(1..2)], [15, 30; int(1..2)],
         [15, 31; int(1..2)], [15, 32; int(1..2)], [15, 34; int(1..2)], [15, 35; int(1..2)], [15, 37; int(1..2)],
         [15, 38; int(1..2)], [15, 39; int(1..2)], [15, 40; int(1..2)], [15, 41; int(1..2)], [15, 42; int(1..2)],
         [15, 47; int(1..2)], [15, 48; int(1..2)], [15, 49; int(1..2)], [15, 53; int(1..2)], [15, 56; int(1..2)],
         [15, 57; int(1..2)], [15, 58; int(1..2)], [16, 17; int(1..2)], [16, 18; int(1..2)], [16, 19; int(1..2)],
         [16, 22; int(1..2)], [16, 23; int(1..2)], [16, 24; int(1..2)], [16, 25; int(1..2)], [16, 28; int(1..2)],
         [16, 31; int(1..2)], [16, 32; int(1..2)], [16, 34; int(1..2)], [16, 35; int(1..2)], [16, 36; int(1..2)],
         [16, 37; int(1..2)], [16, 38; int(1..2)], [16, 40; int(1..2)], [16, 44; int(1..2)], [16, 45; int(1..2)],
         [16, 46; int(1..2)], [16, 47; int(1..2)], [16, 48; int(1..2)], [16, 49; int(1..2)], [16, 50; int(1..2)],
         [16, 55; int(1..2)], [16, 57; int(1..2)], [16, 58; int(1..2)], [17, 18; int(1..2)], [17, 21; int(1..2)],
         [17, 24; int(1..2)], [17, 25; int(1..2)], [17, 26; int(1..2)], [17, 27; int(1..2)], [17, 29; int(1..2)],
         [17, 30; int(1..2)], [17, 31; int(1..2)], [17, 32; int(1..2)], [17, 33; int(1..2)], [17, 34; int(1..2)],
         [17, 35; int(1..2)], [17, 36; int(1..2)], [17, 38; int(1..2)], [17, 39; int(1..2)], [17, 41; int(1..2)],
         [17, 42; int(1..2)], [17, 46; int(1..2)], [17, 48; int(1..2)], [17, 52; int(1..2)], [17, 55; int(1..2)],
         [17, 58; int(1..2)], [17, 59; int(1..2)], [17, 60; int(1..2)], [18, 20; int(1..2)], [18, 21; int(1..2)],
         [18, 22; int(1..2)], [18, 23; int(1..2)], [18, 28; int(1..2)], [18, 29; int(1..2)], [18, 30; int(1..2)],
         [18, 31; int(1..2)], [18, 32; int(1..2)], [18, 34; int(1..2)], [18, 36; int(1..2)], [18, 38; int(1..2)],
         [18, 42; int(1..2)], [18, 44; int(1..2)], [18, 46; int(1..2)], [18, 49; int(1..2)], [18, 50; int(1..2)],
         [18, 52; int(1..2)], [18, 53; int(1..2)], [18, 57; int(1..2)], [18, 60; int(1..2)], [19, 20; int(1..2)],
         [19, 21; int(1..2)], [19, 23; int(1..2)], [19, 24; int(1..2)], [19, 25; int(1..2)], [19, 26; int(1..2)],
         [19, 27; int(1..2)], [19, 29; int(1..2)], [19, 33; int(1..2)], [19, 34; int(1..2)], [19, 35; int(1..2)],
         [19, 39; int(1..2)], [19, 40; int(1..2)], [19, 41; int(1..2)], [19, 43; int(1..2)], [19, 44; int(1..2)],
         [19, 45; int(1..2)], [19, 47; int(1..2)], [19, 48; int(1..2)], [19, 49; int(1..2)], [19, 53; int(1..2)],
         [19, 60; int(1..2)], [20, 21; int(1..2)], [20, 30; int(1..2)], [20, 31; int(1..2)], [20, 32; int(1..2)],
         [20, 33; int(1..2)], [20, 34; int(1..2)], [20, 37; int(1..2)], [20, 38; int(1..2)], [20, 40; int(1..2)],
         [20, 41; int(1..2)], [20, 43; int(1..2)], [20, 44; int(1..2)], [20, 45; int(1..2)], [20, 46; int(1..2)],
         [20, 48; int(1..2)], [20, 53; int(1..2)], [20, 56; int(1..2)], [20, 57; int(1..2)], [20, 59; int(1..2)],
         [21, 23; int(1..2)], [21, 25; int(1..2)], [21, 34; int(1..2)], [21, 35; int(1..2)], [21, 39; int(1..2)],
         [21, 40; int(1..2)], [21, 44; int(1..2)], [21, 48; int(1..2)], [21, 49; int(1..2)], [21, 50; int(1..2)],
         [21, 53; int(1..2)], [21, 55; int(1..2)], [21, 56; int(1..2)], [21, 58; int(1..2)], [21, 60; int(1..2)],
         [22, 27; int(1..2)], [22, 28; int(1..2)], [22, 29; int(1..2)], [22, 30; int(1..2)], [22, 36; int(1..2)],
         [22, 41; int(1..2)], [22, 42; int(1..2)], [22, 44; int(1..2)], [22, 49; int(1..2)], [22, 51; int(1..2)],
         [22, 54; int(1..2)], [22, 55; int(1..2)], [22, 57; int(1..2)], [22, 58; int(1..2)], [23, 24; int(1..2)],
         [23, 25; int(1..2)], [23, 27; int(1..2)], [23, 28; int(1..2)], [23, 32; int(1..2)], [23, 33; int(1..2)],
         [23, 39; int(1..2)], [23, 40; int(1..2)], [23, 42; int(1..2)], [23, 45; int(1..2)], [23, 46; int(1..2)],
         [23, 49; int(1..2)], [23, 52; int(1..2)], [23, 53; int(1..2)], [23, 54; int(1..2)], [23, 55; int(1..2)],
         [23, 58; int(1..2)], [23, 59; int(1..2)], [24, 29; int(1..2)], [24, 30; int(1..2)], [24, 31; int(1..2)],
         [24, 39; int(1..2)], [24, 40; int(1..2)], [24, 41; int(1..2)], [24, 42; int(1..2)], [24, 45; int(1..2)],
         [24, 48; int(1..2)], [24, 50; int(1..2)], [24, 52; int(1..2)], [24, 53; int(1..2)], [24, 55; int(1..2)],
         [24, 58; int(1..2)], [24, 59; int(1..2)], [24, 60; int(1..2)], [25, 28; int(1..2)], [25, 29; int(1..2)],
         [25, 31; int(1..2)], [25, 33; int(1..2)], [25, 34; int(1..2)], [25, 35; int(1..2)], [25, 37; int(1..2)],
         [25, 38; int(1..2)], [25, 39; int(1..2)], [25, 41; int(1..2)], [25, 42; int(1..2)], [25, 43; int(1..2)],
         [25, 44; int(1..2)], [25, 49; int(1..2)], [25, 53; int(1..2)], [25, 54; int(1..2)], [25, 55; int(1..2)],
         [25, 56; int(1..2)], [25, 57; int(1..2)], [26, 27; int(1..2)], [26, 28; int(1..2)], [26, 29; int(1..2)],
         [26, 30; int(1..2)], [26, 33; int(1..2)], [26, 34; int(1..2)], [26, 35; int(1..2)], [26, 37; int(1..2)],
         [26, 38; int(1..2)], [26, 41; int(1..2)], [26, 45; int(1..2)], [26, 47; int(1..2)], [26, 51; int(1..2)],
         [26, 52; int(1..2)], [26, 53; int(1..2)], [26, 54; int(1..2)], [26, 58; int(1..2)], [27, 28; int(1..2)],
         [27, 29; int(1..2)], [27, 30; int(1..2)], [27, 31; int(1..2)], [27, 32; int(1..2)], [27, 34; int(1..2)],
         [27, 36; int(1..2)], [27, 39; int(1..2)], [27, 41; int(1..2)], [27, 42; int(1..2)], [27, 44; int(1..2)],
         [27, 46; int(1..2)], [27, 47; int(1..2)], [27, 49; int(1..2)], [27, 50; int(1..2)], [27, 51; int(1..2)],
         [27, 52; int(1..2)], [27, 53; int(1..2)], [27, 56; int(1..2)], [27, 57; int(1..2)], [27, 59; int(1..2)],
         [27, 60; int(1..2)], [28, 30; int(1..2)], [28, 31; int(1..2)], [28, 32; int(1..2)], [28, 34; int(1..2)],
         [28, 35; int(1..2)], [28, 37; int(1..2)], [28, 40; int(1..2)], [28, 42; int(1..2)], [28, 43; int(1..2)],
         [28, 44; int(1..2)], [28, 45; int(1..2)], [28, 49; int(1..2)], [28, 50; int(1..2)], [28, 54; int(1..2)],
         [28, 55; int(1..2)], [28, 57; int(1..2)], [28, 59; int(1..2)], [29, 30; int(1..2)], [29, 33; int(1..2)],
         [29, 34; int(1..2)], [29, 36; int(1..2)], [29, 37; int(1..2)], [29, 40; int(1..2)], [29, 41; int(1..2)],
         [29, 42; int(1..2)], [29, 43; int(1..2)], [29, 50; int(1..2)], [29, 51; int(1..2)], [29, 52; int(1..2)],
         [29, 54; int(1..2)], [29, 55; int(1..2)], [29, 57; int(1..2)], [29, 59; int(1..2)], [29, 60; int(1..2)],
         [30, 33; int(1..2)], [30, 34; int(1..2)], [30, 38; int(1..2)], [30, 40; int(1..2)], [30, 41; int(1..2)],
         [30, 42; int(1..2)], [30, 43; int(1..2)], [30, 44; int(1..2)], [30, 45; int(1..2)], [30, 46; int(1..2)],
         [30, 47; int(1..2)], [30, 48; int(1..2)], [30, 50; int(1..2)], [30, 51; int(1..2)], [30, 53; int(1..2)],
         [30, 54; int(1..2)], [30, 56; int(1..2)], [31, 32; int(1..2)], [31, 33; int(1..2)], [31, 34; int(1..2)],
         [31, 35; int(1..2)], [31, 36; int(1..2)], [31, 37; int(1..2)], [31, 38; int(1..2)], [31, 39; int(1..2)],
         [31, 41; int(1..2)], [31, 42; int(1..2)], [31, 43; int(1..2)], [31, 45; int(1..2)], [31, 48; int(1..2)],
         [31, 50; int(1..2)], [31, 51; int(1..2)], [31, 52; int(1..2)], [31, 55; int(1..2)], [31, 56; int(1..2)],
         [31, 57; int(1..2)], [31, 60; int(1..2)], [32, 37; int(1..2)], [32, 41; int(1..2)], [32, 42; int(1..2)],
         [32, 43; int(1..2)], [32, 44; int(1..2)], [32, 45; int(1..2)], [32, 46; int(1..2)], [32, 47; int(1..2)],
         [32, 49; int(1..2)], [32, 51; int(1..2)], [32, 53; int(1..2)], [32, 55; int(1..2)], [32, 56; int(1..2)],
         [32, 58; int(1..2)], [32, 59; int(1..2)], [33, 35; int(1..2)], [33, 40; int(1..2)], [33, 41; int(1..2)],
         [33, 42; int(1..2)], [33, 46; int(1..2)], [33, 48; int(1..2)], [33, 49; int(1..2)], [33, 50; int(1..2)],
         [33, 51; int(1..2)], [33, 53; int(1..2)], [33, 55; int(1..2)], [33, 57; int(1..2)], [33, 59; int(1..2)],
         [34, 35; int(1..2)], [34, 36; int(1..2)], [34, 38; int(1..2)], [34, 39; int(1..2)], [34, 40; int(1..2)],
         [34, 41; int(1..2)], [34, 42; int(1..2)], [34, 44; int(1..2)], [34, 47; int(1..2)], [34, 50; int(1..2)],
         [34, 51; int(1..2)], [34, 59; int(1..2)], [35, 38; int(1..2)], [35, 41; int(1..2)], [35, 42; int(1..2)],
         [35, 44; int(1..2)], [35, 46; int(1..2)], [35, 48; int(1..2)], [35, 52; int(1..2)], [35, 53; int(1..2)],
         [35, 58; int(1..2)], [35, 59; int(1..2)], [35, 60; int(1..2)], [36, 37; int(1..2)], [36, 38; int(1..2)],
         [36, 41; int(1..2)], [36, 42; int(1..2)], [36, 44; int(1..2)], [36, 46; int(1..2)], [36, 48; int(1..2)],
         [36, 49; int(1..2)], [36, 50; int(1..2)], [36, 51; int(1..2)], [36, 53; int(1..2)], [36, 54; int(1..2)],
         [36, 55; int(1..2)], [36, 57; int(1..2)], [36, 58; int(1..2)], [36, 59; int(1..2)], [37, 40; int(1..2)],
         [37, 41; int(1..2)], [37, 42; int(1..2)], [37, 44; int(1..2)], [37, 46; int(1..2)], [37, 47; int(1..2)],
         [37, 48; int(1..2)], [37, 50; int(1..2)], [37, 53; int(1..2)], [37, 54; int(1..2)], [37, 56; int(1..2)],
         [37, 58; int(1..2)], [37, 60; int(1..2)], [38, 40; int(1..2)], [38, 42; int(1..2)], [38, 43; int(1..2)],
         [38, 48; int(1..2)], [38, 49; int(1..2)], [38, 52; int(1..2)], [38, 53; int(1..2)], [38, 59; int(1..2)],
         [39, 42; int(1..2)], [39, 44; int(1..2)], [39, 46; int(1..2)], [39, 47; int(1..2)], [39, 48; int(1..2)],
         [39, 51; int(1..2)], [39, 52; int(1..2)], [39, 54; int(1..2)], [39, 55; int(1..2)], [39, 57; int(1..2)],
         [39, 59; int(1..2)], [40, 43; int(1..2)], [40, 44; int(1..2)], [40, 45; int(1..2)], [40, 46; int(1..2)],
         [40, 48; int(1..2)], [40, 49; int(1..2)], [40, 51; int(1..2)], [40, 53; int(1..2)], [40, 55; int(1..2)],
         [40, 56; int(1..2)], [40, 58; int(1..2)], [40, 59; int(1..2)], [40, 60; int(1..2)], [41, 45; int(1..2)],
         [41, 51; int(1..2)], [41, 52; int(1..2)], [41, 53; int(1..2)], [41, 54; int(1..2)], [41, 55; int(1..2)],
         [41, 56; int(1..2)], [41, 57; int(1..2)], [42, 43; int(1..2)], [42, 44; int(1..2)], [42, 46; int(1..2)],
         [42, 47; int(1..2)], [42, 49; int(1..2)], [42, 52; int(1..2)], [42, 55; int(1..2)], [42, 56; int(1..2)],
         [42, 57; int(1..2)], [42, 59; int(1..2)], [42, 60; int(1..2)], [43, 45; int(1..2)], [43, 46; int(1..2)],
         [43, 48; int(1..2)], [43, 49; int(1..2)], [43, 51; int(1..2)], [43, 52; int(1..2)], [43, 56; int(1..2)],
         [44, 45; int(1..2)], [44, 47; int(1..2)], [44, 48; int(1..2)], [44, 49; int(1..2)], [44, 51; int(1..2)],
         [44, 53; int(1..2)], [44, 56; int(1..2)], [44, 59; int(1..2)], [44, 60; int(1..2)], [45, 46; int(1..2)],
         [45, 50; int(1..2)], [45, 51; int(1..2)], [45, 52; int(1..2)], [45, 53; int(1..2)], [45, 54; int(1..2)],
         [45, 55; int(1..2)], [45, 56; int(1..2)], [45, 58; int(1..2)], [45, 59; int(1..2)], [46, 53; int(1..2)],
         [46, 57; int(1..2)], [46, 58; int(1..2)], [47, 48; int(1..2)], [47, 49; int(1..2)], [47, 50; int(1..2)],
         [47, 52; int(1..2)], [47, 54; int(1..2)], [47, 55; int(1..2)], [47, 58; int(1..2)], [47, 60; int(1..2)],
         [48, 51; int(1..2)], [48, 55; int(1..2)], [48, 56; int(1..2)], [48, 57; int(1..2)], [48, 59; int(1..2)],
         [48, 60; int(1..2)], [49, 50; int(1..2)], [49, 51; int(1..2)], [49, 52; int(1..2)], [49, 54; int(1..2)],
         [49, 55; int(1..2)], [49, 56; int(1..2)], [49, 59; int(1..2)], [50, 52; int(1..2)], [50, 53; int(1..2)],
         [50, 54; int(1..2)], [50, 55; int(1..2)], [50, 56; int(1..2)], [50, 57; int(1..2)], [50, 60; int(1..2)],
         [51, 53; int(1..2)], [51, 54; int(1..2)], [51, 56; int(1..2)], [51, 58; int(1..2)], [51, 60; int(1..2)],
         [52, 57; int(1..2)], [52, 58; int(1..2)], [52, 59; int(1..2)], [53, 55; int(1..2)], [53, 56; int(1..2)],
         [53, 57; int(1..2)], [53, 59; int(1..2)], [54, 56; int(1..2)], [54, 57; int(1..2)], [54, 58; int(1..2)],
         [54, 59; int(1..2)], [55, 57; int(1..2)], [55, 59; int(1..2)], [56, 60; int(1..2)], [57, 59; int(1..2)],
         [57, 60; int(1..2)], [59, 60; int(1..2)];
             int(1..897)]
$ Visualisation for demand_ExplicitR3_Explicit
$  1  2
$  1  3
$  1  4
$  1  5
$  1  6
$  1  8
$  1 11
$  1 12
$  1 19
$  1 22
$  1 25
$  1 29
$  1 32
$  1 33
$  1 35
$  1 37
$  1 39
$  1 40
$  1 43
$  1 44
$  1 47
$  1 53
$  1 54
$  1 56
$  1 58
$  1 59
$  2 10
$  2 11
$  2 15
$  2 20
$  2 21
$  2 22
$  2 24
$  2 26
$  2 28
$  2 29
$  2 30
$  2 31
$  2 33
$  2 34
$  2 36
$  2 37
$  2 38
$  2 41
$  2 44
$  2 45
$  2 47
$  2 48
$  2 50
$  2 51
$  2 52
$  2 53
$  2 55
$  2 56
$  3  4
$  3  5
$  3  8
$  3  9
$  3 11
$  3 14
$  3 15
$  3 18
$  3 21
$  3 24
$  3 26
$  3 27
$  3 28
$  3 29
$  3 32
$  3 33
$  3 36
$  3 37
$  3 38
$  3 42
$  3 45
$  3 49
$  3 50
$  3 51
$  3 52
$  3 56
$  4  5
$  4  9
$  4 11
$  4 13
$  4 16
$  4 20
$  4 22
$  4 24
$  4 26
$  4 31
$  4 32
$  4 34
$  4 35
$  4 37
$  4 44
$  4 45
$  4 46
$  4 47
$  4 49
$  4 50
$  4 51
$  4 56
$  4 57
$  4 58
$  4 59
$  5  9
$  5 11
$  5 12
$  5 13
$  5 15
$  5 16
$  5 19
$  5 20
$  5 23
$  5 24
$  5 25
$  5 27
$  5 29
$  5 30
$  5 32
$  5 34
$  5 37
$  5 39
$  5 41
$  5 42
$  5 43
$  5 45
$  5 46
$  5 47
$  5 49
$  5 50
$  5 51
$  5 52
$  5 53
$  5 54
$  5 55
$  5 58
$  5 59
$  5 60
$  6 10
$  6 11
$  6 14
$  6 15
$  6 17
$  6 20
$  6 22
$  6 23
$  6 24
$  6 26
$  6 28
$  6 30
$  6 31
$  6 34
$  6 36
$  6 38
$  6 41
$  6 42
$  6 43
$  6 46
$  6 49
$  6 51
$  6 52
$  6 55
$  6 59
$  6 60
$  7  8
$  7  9
$  7 10
$  7 11
$  7 14
$  7 15
$  7 17
$  7 19
$  7 22
$  7 24
$  7 27
$  7 28
$  7 32
$  7 35
$  7 39
$  7 40
$  7 41
$  7 42
$  7 49
$  7 50
$  7 52
$  7 54
$  7 60
$  8  9
$  8 10
$  8 11
$  8 13
$  8 14
$  8 16
$  8 24
$  8 25
$  8 26
$  8 29
$  8 30
$  8 31
$  8 33
$  8 36
$  8 40
$  8 41
$  8 44
$  8 46
$  8 49
$  8 50
$  8 54
$  8 58
$  8 60
$  9 10
$  9 13
$  9 17
$  9 21
$  9 23
$  9 24
$  9 27
$  9 29
$  9 31
$  9 32
$  9 36
$  9 37
$  9 38
$  9 40
$  9 46
$  9 50
$  9 52
$  9 53
$  9 55
$  9 56
$  9 58
$ 10 12
$ 10 14
$ 10 15
$ 10 16
$ 10 17
$ 10 18
$ 10 22
$ 10 23
$ 10 26
$ 10 27
$ 10 30
$ 10 32
$ 10 37
$ 10 40
$ 10 41
$ 10 43
$ 10 44
$ 10 45
$ 10 47
$ 10 49
$ 10 50
$ 10 51
$ 10 55
$ 10 59
$ 10 60
$ 11 13
$ 11 15
$ 11 16
$ 11 21
$ 11 22
$ 11 23
$ 11 24
$ 11 25
$ 11 27
$ 11 30
$ 11 32
$ 11 34
$ 11 41
$ 11 42
$ 11 44
$ 11 45
$ 11 46
$ 11 49
$ 11 50
$ 11 55
$ 11 56
$ 11 59
$ 12 13
$ 12 15
$ 12 16
$ 12 17
$ 12 18
$ 12 19
$ 12 20
$ 12 24
$ 12 25
$ 12 28
$ 12 30
$ 12 32
$ 12 33
$ 12 34
$ 12 36
$ 12 37
$ 12 39
$ 12 40
$ 12 41
$ 12 42
$ 12 43
$ 12 46
$ 12 48
$ 12 49
$ 12 50
$ 12 51
$ 12 52
$ 12 55
$ 12 58
$ 12 59
$ 12 60
$ 13 18
$ 13 25
$ 13 29
$ 13 31
$ 13 34
$ 13 35
$ 13 38
$ 13 41
$ 13 43
$ 13 44
$ 13 45
$ 13 52
$ 13 53
$ 13 54
$ 13 56
$ 13 57
$ 13 60
$ 14 17
$ 14 18
$ 14 20
$ 14 21
$ 14 22
$ 14 23
$ 14 25
$ 14 27
$ 14 30
$ 14 32
$ 14 34
$ 14 35
$ 14 36
$ 14 41
$ 14 42
$ 14 43
$ 14 44
$ 14 45
$ 14 46
$ 14 47
$ 14 49
$ 14 51
$ 14 52
$ 14 53
$ 14 56
$ 14 57
$ 14 59
$ 15 16
$ 15 17
$ 15 18
$ 15 19
$ 15 22
$ 15 23
$ 15 24
$ 15 25
$ 15 28
$ 15 29
$ 15 30
$ 15 31
$ 15 32
$ 15 34
$ 15 35
$ 15 37
$ 15 38
$ 15 39
$ 15 40
$ 15 41
$ 15 42
$ 15 47
$ 15 48
$ 15 49
$ 15 53
$ 15 56
$ 15 57
$ 15 58
$ 16 17
$ 16 18
$ 16 19
$ 16 22
$ 16 23
$ 16 24
$ 16 25
$ 16 28
$ 16 31
$ 16 32
$ 16 34
$ 16 35
$ 16 36
$ 16 37
$ 16 38
$ 16 40
$ 16 44
$ 16 45
$ 16 46
$ 16 47
$ 16 48
$ 16 49
$ 16 50
$ 16 55
$ 16 57
$ 16 58
$ 17 18
$ 17 21
$ 17 24
$ 17 25
$ 17 26
$ 17 27
$ 17 29
$ 17 30
$ 17 31
$ 17 32
$ 17 33
$ 17 34
$ 17 35
$ 17 36
$ 17 38
$ 17 39
$ 17 41
$ 17 42
$ 17 46
$ 17 48
$ 17 52
$ 17 55
$ 17 58
$ 17 59
$ 17 60
$ 18 20
$ 18 21
$ 18 22
$ 18 23
$ 18 28
$ 18 29
$ 18 30
$ 18 31
$ 18 32
$ 18 34
$ 18 36
$ 18 38
$ 18 42
$ 18 44
$ 18 46
$ 18 49
$ 18 50
$ 18 52
$ 18 53
$ 18 57
$ 18 60
$ 19 20
$ 19 21
$ 19 23
$ 19 24
$ 19 25
$ 19 26
$ 19 27
$ 19 29
$ 19 33
$ 19 34
$ 19 35
$ 19 39
$ 19 40
$ 19 41
$ 19 43
$ 19 44
$ 19 45
$ 19 47
$ 19 48
$ 19 49
$ 19 53
$ 19 60
$ 20 21
$ 20 30
$ 20 31
$ 20 32
$ 20 33
$ 20 34
$ 20 37
$ 20 38
$ 20 40
$ 20 41
$ 20 43
$ 20 44
$ 20 45
$ 20 46
$ 20 48
$ 20 53
$ 20 56
$ 20 57
$ 20 59
$ 21 23
$ 21 25
$ 21 34
$ 21 35
$ 21 39
$ 21 40
$ 21 44
$ 21 48
$ 21 49
$ 21 50
$ 21 53
$ 21 55
$ 21 56
$ 21 58
$ 21 60
$ 22 27
$ 22 28
$ 22 29
$ 22 30
$ 22 36
$ 22 41
$ 22 42
$ 22 44
$ 22 49
$ 22 51
$ 22 54
$ 22 55
$ 22 57
$ 22 58
$ 23 24
$ 23 25
$ 23 27
$ 23 28
$ 23 32
$ 23 33
$ 23 39
$ 23 40
$ 23 42
$ 23 45
$ 23 46
$ 23 49
$ 23 52
$ 23 53
$ 23 54
$ 23 55
$ 23 58
$ 23 59
$ 24 29
$ 24 30
$ 24 31
$ 24 39
$ 24 40
$ 24 41
$ 24 42
$ 24 45
$ 24 48
$ 24 50
$ 24 52
$ 24 53
$ 24 55
$ 24 58
$ 24 59
$ 24 60
$ 25 28
$ 25 29
$ 25 31
$ 25 33
$ 25 34
$ 25 35
$ 25 37
$ 25 38
$ 25 39
$ 25 41
$ 25 42
$ 25 43
$ 25 44
$ 25 49
$ 25 53
$ 25 54
$ 25 55
$ 25 56
$ 25 57
$ 26 27
$ 26 28
$ 26 29
$ 26 30
$ 26 33
$ 26 34
$ 26 35
$ 26 37
$ 26 38
$ 26 41
$ 26 45
$ 26 47
$ 26 51
$ 26 52
$ 26 53
$ 26 54
$ 26 58
$ 27 28
$ 27 29
$ 27 30
$ 27 31
$ 27 32
$ 27 34
$ 27 36
$ 27 39
$ 27 41
$ 27 42
$ 27 44
$ 27 46
$ 27 47
$ 27 49
$ 27 50
$ 27 51
$ 27 52
$ 27 53
$ 27 56
$ 27 57
$ 27 59
$ 27 60
$ 28 30
$ 28 31
$ 28 32
$ 28 34
$ 28 35
$ 28 37
$ 28 40
$ 28 42
$ 28 43
$ 28 44
$ 28 45
$ 28 49
$ 28 50
$ 28 54
$ 28 55
$ 28 57
$ 28 59
$ 29 30
$ 29 33
$ 29 34
$ 29 36
$ 29 37
$ 29 40
$ 29 41
$ 29 42
$ 29 43
$ 29 50
$ 29 51
$ 29 52
$ 29 54
$ 29 55
$ 29 57
$ 29 59
$ 29 60
$ 30 33
$ 30 34
$ 30 38
$ 30 40
$ 30 41
$ 30 42
$ 30 43
$ 30 44
$ 30 45
$ 30 46
$ 30 47
$ 30 48
$ 30 50
$ 30 51
$ 30 53
$ 30 54
$ 30 56
$ 31 32
$ 31 33
$ 31 34
$ 31 35
$ 31 36
$ 31 37
$ 31 38
$ 31 39
$ 31 41
$ 31 42
$ 31 43
$ 31 45
$ 31 48
$ 31 50
$ 31 51
$ 31 52
$ 31 55
$ 31 56
$ 31 57
$ 31 60
$ 32 37
$ 32 41
$ 32 42
$ 32 43
$ 32 44
$ 32 45
$ 32 46
$ 32 47
$ 32 49
$ 32 51
$ 32 53
$ 32 55
$ 32 56
$ 32 58
$ 32 59
$ 33 35
$ 33 40
$ 33 41
$ 33 42
$ 33 46
$ 33 48
$ 33 49
$ 33 50
$ 33 51
$ 33 53
$ 33 55
$ 33 57
$ 33 59
$ 34 35
$ 34 36
$ 34 38
$ 34 39
$ 34 40
$ 34 41
$ 34 42
$ 34 44
$ 34 47
$ 34 50
$ 34 51
$ 34 59
$ 35 38
$ 35 41
$ 35 42
$ 35 44
$ 35 46
$ 35 48
$ 35 52
$ 35 53
$ 35 58
$ 35 59
$ 35 60
$ 36 37
$ 36 38
$ 36 41
$ 36 42
$ 36 44
$ 36 46
$ 36 48
$ 36 49
$ 36 50
$ 36 51
$ 36 53
$ 36 54
$ 36 55
$ 36 57
$ 36 58
$ 36 59
$ 37 40
$ 37 41
$ 37 42
$ 37 44
$ 37 46
$ 37 47
$ 37 48
$ 37 50
$ 37 53
$ 37 54
$ 37 56
$ 37 58
$ 37 60
$ 38 40
$ 38 42
$ 38 43
$ 38 48
$ 38 49
$ 38 52
$ 38 53
$ 38 59
$ 39 42
$ 39 44
$ 39 46
$ 39 47
$ 39 48
$ 39 51
$ 39 52
$ 39 54
$ 39 55
$ 39 57
$ 39 59
$ 40 43
$ 40 44
$ 40 45
$ 40 46
$ 40 48
$ 40 49
$ 40 51
$ 40 53
$ 40 55
$ 40 56
$ 40 58
$ 40 59
$ 40 60
$ 41 45
$ 41 51
$ 41 52
$ 41 53
$ 41 54
$ 41 55
$ 41 56
$ 41 57
$ 42 43
$ 42 44
$ 42 46
$ 42 47
$ 42 49
$ 42 52
$ 42 55
$ 42 56
$ 42 57
$ 42 59
$ 42 60
$ 43 45
$ 43 46
$ 43 48
$ 43 49
$ 43 51
$ 43 52
$ 43 56
$ 44 45
$ 44 47
$ 44 48
$ 44 49
$ 44 51
$ 44 53
$ 44 56
$ 44 59
$ 44 60
$ 45 46
$ 45 50
$ 45 51
$ 45 52
$ 45 53
$ 45 54
$ 45 55
$ 45 56
$ 45 58
$ 45 59
$ 46 53
$ 46 57
$ 46 58
$ 47 48
$ 47 49
$ 47 50
$ 47 52
$ 47 54
$ 47 55
$ 47 58
$ 47 60
$ 48 51
$ 48 55
$ 48 56
$ 48 57
$ 48 59
$ 48 60
$ 49 50
$ 49 51
$ 49 52
$ 49 54
$ 49 55
$ 49 56
$ 49 59
$ 50 52
$ 50 53
$ 50 54
$ 50 55
$ 50 56
$ 50 57
$ 50 60
$ 51 53
$ 51 54
$ 51 56
$ 51 58
$ 51 60
$ 52 57
$ 52 58
$ 52 59
$ 53 55
$ 53 56
$ 53 57
$ 53 59
$ 54 56
$ 54 57
$ 54 58
$ 54 59
$ 55 57
$ 55 59
$ 56 60
$ 57 59
$ 57 60
$ 59 60

letting fin1 be 897
